32      4       
11      16      15      15      
0       0       0       0       0       1       2       
9       1       1       1       5       1       3       
4       1       4       1       1       2       4       8       
5       2       2       6       1       1       5       
6       1       1       1       1       2       6       7       
4       7       1       1       6       2       9       12      
5       8       1       2       6       1       10      
10      1       1       1       1       1       9       
4       1       2       1       1       2       11      13      
3       5       3       6       1       2       11      13      
4       3       1       1       5       3       14      15      17      
7       1       1       7       4       3       14      15      17      
5       3       4       3       1       1       14      
2       1       1       4       2       3       16      18      24      
5       1       1       4       1       2       16      24      
3       1       4       1       3       3       19      20      22      
10      4       1       6       6       3       19      20      23      
5       2       1       1       1       3       20      22      23      
10      1       4       1       1       1       21      
5       1       8       1       1       1       25      
8       1       2       1       1       1       25      
5       2       1       5       5       1       25      
5       3       3       1       8       1       25      
3       1       8       3       3       1       25      
1       4       7       1       1       2       26      27      
1       4       3       1       1       2       28      29      
4       1       3       11      1       1       28      
2       1       6       2       1       2       30      31      
9       2       9       5       7       1       30      
6       1       11      5       9       1       32      
8       1       1       6       5       1       32      
0       0       0       0       0       0       
